p cnf 281 822
c inputs: 1 2 3 4 5 6 7
c variables for gates: 8 ... 274
c outputs: 275 276 277 278 279 280 281
c random input: 1 -2 3 -4 -5 -6 -7
8 -3 -6 0
-8 3 0
-8 6 0
9 -3 -7 0
-9 3 0
-9 7 0
10 -1 -4 0
-10 1 0
-10 4 0
11 -1 -5 0
-11 1 0
-11 5 0
12 -2 -4 0
-12 2 0
-12 4 0
13 -2 -5 0
-13 2 0
-13 5 0
14 -11 12 0
-14 11 0
-14 -12 0
15 -12 11 0
-15 12 0
-15 -11 0
16 14 15 0
-16 -14 0
-16 -15 0
17 -12 -11 0
-17 12 0
-17 11 0
18 13 -17 0
-18 -13 0
-18 17 0
19 -13 17 0
-19 13 0
-19 -17 0
20 18 19 0
-20 -18 0
-20 -19 0
21 -13 -17 0
-21 13 0
-21 17 0
22 -6 4 0
-22 6 0
-22 -4 0
23 -4 6 0
-23 4 0
-23 -6 0
24 23 22 0
-24 -23 0
-24 -22 0
25 -7 5 0
-25 7 0
-25 -5 0
26 -5 7 0
-26 5 0
-26 -7 0
27 26 25 0
-27 -26 0
-27 -25 0
28 -4 -6 0
-28 4 0
-28 6 0
29 28 27 0
-29 -28 0
-29 -27 0
30 -28 -27 0
-30 28 0
-30 27 0
31 29 30 0
-31 -29 0
-31 -30 0
32 -5 -7 0
-32 5 0
-32 7 0
33 -4 -6 0
-33 4 0
-33 6 0
34 -7 -33 0
-34 7 0
-34 33 0
35 -4 -6 0
-35 4 0
-35 6 0
36 -5 -35 0
-36 5 0
-36 35 0
37 34 36 0
-37 -34 0
-37 -36 0
38 32 -37 0
-38 -32 0
-38 37 0
39 -3 1 0
-39 3 0
-39 -1 0
40 -1 3 0
-40 1 0
-40 -3 0
41 40 39 0
-41 -40 0
-41 -39 0
42 -1 -3 0
-42 1 0
-42 3 0
43 -2 42 0
-43 2 0
-43 -42 0
44 2 -42 0
-44 -2 0
-44 42 0
45 43 44 0
-45 -43 0
-45 -44 0
46 -1 -3 0
-46 1 0
-46 3 0
47 -2 -46 0
-47 2 0
-47 46 0
48 24 41 0
-48 -24 0
-48 -41 0
49 41 31 0
-49 -41 0
-49 -31 0
50 41 38 0
-50 -41 0
-50 -38 0
51 24 45 0
-51 -24 0
-51 -45 0
52 45 31 0
-52 -45 0
-52 -31 0
53 45 38 0
-53 -45 0
-53 -38 0
54 -47 24 0
-54 47 0
-54 -24 0
55 -47 31 0
-55 47 0
-55 -31 0
56 -47 38 0
-56 47 0
-56 -38 0
57 -51 -49 0
-57 51 0
-57 49 0
58 51 -49 0
-58 -51 0
-58 49 0
59 -51 49 0
-59 51 0
-59 -49 0
60 59 58 0
-60 -59 0
-60 -58 0
61 -50 -52 0
-61 50 0
-61 52 0
62 -54 -50 0
-62 54 0
-62 50 0
63 -54 -52 0
-63 54 0
-63 52 0
64 62 63 0
-64 -62 0
-64 -63 0
65 61 -64 0
-65 -61 0
-65 64 0
66 54 -52 0
-66 -54 0
-66 52 0
67 -54 52 0
-67 54 0
-67 -52 0
68 67 66 0
-68 -67 0
-68 -66 0
69 -50 -68 0
-69 50 0
-69 68 0
70 50 68 0
-70 -50 0
-70 -68 0
71 69 70 0
-71 -69 0
-71 -70 0
72 -53 -55 0
-72 53 0
-72 55 0
73 -53 55 0
-73 53 0
-73 -55 0
74 53 -55 0
-74 -53 0
-74 55 0
75 73 74 0
-75 -73 0
-75 -74 0
76 57 71 0
-76 -57 0
-76 -71 0
77 -57 -71 0
-77 57 0
-77 71 0
78 77 76 0
-78 -77 0
-78 -76 0
79 -57 71 0
-79 57 0
-79 -71 0
80 75 -65 0
-80 -75 0
-80 65 0
81 -75 65 0
-81 75 0
-81 -65 0
82 81 80 0
-82 -81 0
-82 -80 0
83 -82 -79 0
-83 82 0
-83 79 0
84 82 79 0
-84 -82 0
-84 -79 0
85 83 84 0
-85 -83 0
-85 -84 0
86 75 -79 0
-86 -75 0
-86 79 0
87 -79 65 0
-87 79 0
-87 -65 0
88 75 65 0
-88 -75 0
-88 -65 0
89 87 88 0
-89 -87 0
-89 -88 0
90 86 -89 0
-90 -86 0
-90 89 0
91 -56 72 0
-91 56 0
-91 -72 0
92 56 -72 0
-92 -56 0
-92 72 0
93 92 91 0
-93 -92 0
-93 -91 0
94 90 -93 0
-94 -90 0
-94 93 0
95 -90 93 0
-95 90 0
-95 -93 0
96 95 94 0
-96 -95 0
-96 -94 0
97 -56 90 0
-97 56 0
-97 -90 0
98 90 -72 0
-98 -90 0
-98 72 0
99 -56 -72 0
-99 56 0
-99 72 0
100 99 98 0
-100 -99 0
-100 -98 0
101 97 -100 0
-101 -97 0
-101 100 0
102 9 -8 0
-102 -9 0
-102 8 0
103 8 -9 0
-103 -8 0
-103 9 0
104 102 103 0
-104 -102 0
-104 -103 0
105 8 9 0
-105 -8 0
-105 -9 0
106 8 -48 0
-106 -8 0
-106 48 0
107 -8 48 0
-107 8 0
-107 -48 0
108 107 106 0
-108 -107 0
-108 -106 0
109 -104 60 0
-109 104 0
-109 -60 0
110 104 -60 0
-110 -104 0
-110 60 0
111 109 110 0
-111 -109 0
-111 -110 0
112 -8 -48 0
-112 8 0
-112 48 0
113 112 111 0
-113 -112 0
-113 -111 0
114 -112 -111 0
-114 112 0
-114 111 0
115 113 114 0
-115 -113 0
-115 -114 0
116 104 60 0
-116 -104 0
-116 -60 0
117 -8 -48 0
-117 8 0
-117 48 0
118 -117 60 0
-118 117 0
-118 -60 0
119 -8 -48 0
-119 8 0
-119 48 0
120 104 -119 0
-120 -104 0
-120 119 0
121 118 120 0
-121 -118 0
-121 -120 0
122 116 -121 0
-122 -116 0
-122 121 0
123 -105 78 0
-123 105 0
-123 -78 0
124 105 -78 0
-124 -105 0
-124 78 0
125 123 124 0
-125 -123 0
-125 -124 0
126 125 -122 0
-126 -125 0
-126 122 0
127 -125 122 0
-127 125 0
-127 -122 0
128 126 127 0
-128 -126 0
-128 -127 0
129 105 78 0
-129 -105 0
-129 -78 0
130 122 78 0
-130 -122 0
-130 -78 0
131 105 122 0
-131 -105 0
-131 -122 0
132 131 130 0
-132 -131 0
-132 -130 0
133 129 -132 0
-133 -129 0
-133 132 0
134 -105 85 0
-134 105 0
-134 -85 0
135 105 -85 0
-135 -105 0
-135 85 0
136 135 134 0
-136 -135 0
-136 -134 0
137 -133 136 0
-137 133 0
-137 -136 0
138 133 -136 0
-138 -133 0
-138 136 0
139 137 138 0
-139 -137 0
-139 -138 0
140 105 85 0
-140 -105 0
-140 -85 0
141 133 85 0
-141 -133 0
-141 -85 0
142 105 133 0
-142 -105 0
-142 -133 0
143 142 141 0
-143 -142 0
-143 -141 0
144 -143 140 0
-144 143 0
-144 -140 0
145 -105 96 0
-145 105 0
-145 -96 0
146 105 -96 0
-146 -105 0
-146 96 0
147 145 146 0
-147 -145 0
-147 -146 0
148 -144 147 0
-148 144 0
-148 -147 0
149 144 -147 0
-149 -144 0
-149 147 0
150 148 149 0
-150 -148 0
-150 -149 0
151 105 96 0
-151 -105 0
-151 -96 0
152 144 96 0
-152 -144 0
-152 -96 0
153 105 144 0
-153 -105 0
-153 -144 0
154 152 153 0
-154 -152 0
-154 -153 0
155 -154 151 0
-155 154 0
-155 -151 0
156 -105 101 0
-156 105 0
-156 -101 0
157 105 -101 0
-157 -105 0
-157 101 0
158 156 157 0
-158 -156 0
-158 -157 0
159 158 -155 0
-159 -158 0
-159 155 0
160 -158 155 0
-160 158 0
-160 -155 0
161 160 159 0
-161 -160 0
-161 -159 0
162 -10 -16 0
-162 10 0
-162 16 0
163 10 16 0
-163 -10 0
-163 -16 0
164 162 163 0
-164 -162 0
-164 -163 0
165 10 -16 0
-165 -10 0
-165 16 0
166 165 -20 0
-166 -165 0
-166 20 0
167 -165 20 0
-167 165 0
-167 -20 0
168 167 166 0
-168 -167 0
-168 -166 0
169 -165 -20 0
-169 165 0
-169 20 0
170 21 169 0
-170 -21 0
-170 -169 0
171 -21 -169 0
-171 21 0
-171 169 0
172 170 171 0
-172 -170 0
-172 -171 0
173 21 -169 0
-173 -21 0
-173 169 0
174 10 108 0
-174 -10 0
-174 -108 0
175 -10 -108 0
-175 10 0
-175 108 0
176 174 175 0
-176 -174 0
-176 -175 0
177 -164 115 0
-177 164 0
-177 -115 0
178 164 -115 0
-178 -164 0
-178 115 0
179 177 178 0
-179 -177 0
-179 -178 0
180 -10 108 0
-180 10 0
-180 -108 0
181 180 179 0
-181 -180 0
-181 -179 0
182 -180 -179 0
-182 180 0
-182 179 0
183 181 182 0
-183 -181 0
-183 -182 0
184 164 115 0
-184 -164 0
-184 -115 0
185 -10 108 0
-185 10 0
-185 -108 0
186 -185 115 0
-186 185 0
-186 -115 0
187 -10 108 0
-187 10 0
-187 -108 0
188 164 -187 0
-188 -164 0
-188 187 0
189 186 188 0
-189 -186 0
-189 -188 0
190 184 -189 0
-190 -184 0
-190 189 0
191 -168 128 0
-191 168 0
-191 -128 0
192 168 -128 0
-192 -168 0
-192 128 0
193 192 191 0
-193 -192 0
-193 -191 0
194 193 -190 0
-194 -193 0
-194 190 0
195 -193 190 0
-195 193 0
-195 -190 0
196 194 195 0
-196 -194 0
-196 -195 0
197 168 128 0
-197 -168 0
-197 -128 0
198 190 128 0
-198 -190 0
-198 -128 0
199 168 190 0
-199 -168 0
-199 -190 0
200 199 198 0
-200 -199 0
-200 -198 0
201 197 -200 0
-201 -197 0
-201 200 0
202 -172 139 0
-202 172 0
-202 -139 0
203 172 -139 0
-203 -172 0
-203 139 0
204 203 202 0
-204 -203 0
-204 -202 0
205 204 -201 0
-205 -204 0
-205 201 0
206 -204 201 0
-206 204 0
-206 -201 0
207 205 206 0
-207 -205 0
-207 -206 0
208 172 139 0
-208 -172 0
-208 -139 0
209 201 139 0
-209 -201 0
-209 -139 0
210 172 201 0
-210 -172 0
-210 -201 0
211 210 209 0
-211 -210 0
-211 -209 0
212 208 -211 0
-212 -208 0
-212 211 0
213 150 -173 0
-213 -150 0
-213 173 0
214 -150 173 0
-214 150 0
-214 -173 0
215 214 213 0
-215 -214 0
-215 -213 0
216 -212 215 0
-216 212 0
-216 -215 0
217 212 -215 0
-217 -212 0
-217 215 0
218 216 217 0
-218 -216 0
-218 -217 0
219 150 173 0
-219 -150 0
-219 -173 0
220 212 150 0
-220 -212 0
-220 -150 0
221 212 173 0
-221 -212 0
-221 -173 0
222 220 221 0
-222 -220 0
-222 -221 0
223 219 -222 0
-223 -219 0
-223 222 0
224 -173 161 0
-224 173 0
-224 -161 0
225 173 -161 0
-225 -173 0
-225 161 0
226 225 224 0
-226 -225 0
-226 -224 0
227 226 -223 0
-227 -226 0
-227 223 0
228 -226 223 0
-228 226 0
-228 -223 0
229 227 228 0
-229 -227 0
-229 -228 0
230 20 -176 0
-230 -20 0
-230 176 0
231 -20 176 0
-231 20 0
-231 -176 0
232 230 231 0
-232 -230 0
-232 -231 0
233 20 176 0
-233 -20 0
-233 -176 0
234 -21 -183 0
-234 21 0
-234 183 0
235 21 183 0
-235 -21 0
-235 -183 0
236 235 234 0
-236 -235 0
-236 -234 0
237 236 233 0
-237 -236 0
-237 -233 0
238 -236 -233 0
-238 236 0
-238 233 0
239 237 238 0
-239 -237 0
-239 -238 0
240 -21 183 0
-240 21 0
-240 -183 0
241 -21 -233 0
-241 21 0
-241 233 0
242 183 -233 0
-242 -183 0
-242 233 0
243 242 241 0
-243 -242 0
-243 -241 0
244 -243 240 0
-244 243 0
-244 -240 0
245 -8 -244 0
-245 8 0
-245 244 0
246 8 244 0
-246 -8 0
-246 -244 0
247 246 245 0
-247 -246 0
-247 -245 0
248 -247 196 0
-248 247 0
-248 -196 0
249 247 -196 0
-249 -247 0
-249 196 0
250 249 248 0
-250 -249 0
-250 -248 0
251 -8 196 0
-251 8 0
-251 -196 0
252 196 244 0
-252 -196 0
-252 -244 0
253 -8 244 0
-253 8 0
-253 -244 0
254 252 253 0
-254 -252 0
-254 -253 0
255 -254 251 0
-255 254 0
-255 -251 0
256 -9 -255 0
-256 9 0
-256 255 0
257 9 255 0
-257 -9 0
-257 -255 0
258 256 257 0
-258 -256 0
-258 -257 0
259 207 -258 0
-259 -207 0
-259 258 0
260 -207 258 0
-260 207 0
-260 -258 0
261 260 259 0
-261 -260 0
-261 -259 0
262 -9 207 0
-262 9 0
-262 -207 0
263 207 255 0
-263 -207 0
-263 -255 0
264 -9 255 0
-264 9 0
-264 -255 0
265 263 264 0
-265 -263 0
-265 -264 0
266 262 -265 0
-266 -262 0
-266 265 0
267 -266 218 0
-267 266 0
-267 -218 0
268 266 -218 0
-268 -266 0
-268 218 0
269 268 267 0
-269 -268 0
-269 -267 0
270 266 218 0
-270 -266 0
-270 -218 0
271 270 229 0
-271 -270 0
-271 -229 0
272 -270 -229 0
-272 270 0
-272 229 0
273 272 271 0
-273 -272 0
-273 -271 0
274 -270 229 0
-274 270 0
-274 -229 0
-275 10 0
275 -10 0
-276 -16 0
276 16 0
-277 -232 0
277 232 0
-278 -239 0
278 239 0
-279 -250 0
279 250 0
-280 -261 0
280 261 0
-281 -269 0
281 269 0
-275 0
-276 0
-277 0
-278 0
-279 0
-280 0
-281 0
